
Gurobi 8.1.1 (win64, Matlab) logging started 08/01/19 14:13:39


Gurobi 8.1.1 (win64, Matlab) logging started 08/01/19 14:17:47


Gurobi 8.1.1 (win64, Matlab) logging started 08/01/19 14:19:39


Gurobi 8.1.1 (win64, Matlab) logging started 08/01/19 14:23:09

